25 10 3785
NODE_COORD_SECTION
1 565 575
2 25 185
3 345 750
4 945 685
5 845 655
6 880 660
7 25 230
8 525 1000
9 580 1175
10 650 1130
11 1605 620
12 1220 580
13 1465 200
14 1530 5
15 845 680
16 725 370
17 145 665
18 415 635
19 510 875
20 560 365
21 300 465
22 520 585
23 480 415
24 835 625
25 975 580
SET_SECTION
1 8 2 3 4 8
2 7 7 8 12 13
3 7 12 13 14 
4 7 17 21 
5 7 2 22 23 24 
6 8 5 6 7 
7 7 9 10 11
8 7 18 19 20 
9 8 15 16 17 18 
10 7 22 23 17 18 